     60      3     33    221     21
     42     45     36
     43     28     52      0     29     24     48     30     10     49     58     47     21     32      2      5     57     46     24     59     14     54      5     40     45     29      5     48      4     35     13     26     40     53     14     44     33     16     48      2     19     28     45     30     55      1     26     46      2     13     43     44     32     42     32      0     19     34     20     56     18     31     35     26      3     38      2     26     11      1     13     59     49     57     19      8     20     48      7     15     16     58     18     24      7     15     58     18     34      7      7     47     17     59     19      3     56     26     30     34     11     29      0     58     37     24     17     42     56      9     46     40     58     53     55      9     23     45     48     29      1     17     10     59     49     30     13     31      3     44     10     57     47      5     17     50     41     32     39     47      2     18     38     46     20     59     47     41     48     50     29     26     54     23     40     35     25     46     32     58     37     43     20     51     55     25      2      3     56     35     39      4      5     17     37     59     48     12     30     39     55     36     43      0      4     37     21     27     34      5     45      6     32     13      3     21     42     28     55     34     51     55     29     20     35      4      1     39     35      5      8     54     20     41      2     50     35     52     48     30     33      1     35     28     39     46     15     43     32     42     32     11     18     41     15     55     14     46      9     53     36     38     40     55     23     58      0     10     50     36     36      0     20      4     32     45     11      3     25     29     36     35     54     17     53     27     11     28     41      0     38     37     57     55     50     56     57     23     20     24     13     44     17     11      1     53     38     34     14     12     29     10     57     41     55     37     53     52     31     33     41     25     43      7      8     21     34      3     24      7      8     27     12      5     38     59     17     32      3     37      5      7     36     54      2     39     10     46     25     43     28     32     33     38     39     17     11     48      9     46     13     36      8     41     59     28     14     32     19     54     10     21      8     52      9     26     50     49     18     19     26      6     43     48     55      7     18     31     10     44     21     54     38     28      2     35     21     36     26     53      7     18     19     14     27     43      5     55      8     31     24     17     54     21     43     52      7     13     12     22     31     44      0     33     47     42     52     35     34     39      8     29     44     46      7     34     17     10     32      2     56     55     34      1     28     21     24     52     49     11     45      3     29     40     28     17     53      8     38     15     38     33     36     11     34     22      7      5     58     56     48     18     20      4     32     30      7     33     38     45     55     16     37     57     40     29      3      2      5     59     53     22      0     38     12     55     15     10     19     56     52     42     13     27     22     18     49     50     25     29      6     33     52     34     58      7     22     16     26     49     41     28     26     42      8      6     10      5     38     57      8     42     21     23     22      6     40     57     17     50     12     57     18     38     36     34     23     20     37     46     10     40     32     24     43     34     37     33     19      9     13     50     13      9     10     24      1     31     26     52     32     58     59      6      8     27     59     14     19     29     45      4     30     37     36     20     41     16     24     37     29     59     25      6     45     10      9     12     27     39     54     53     48     46     14     31     15     40     28     51     14      6      3     46     58      8     49     58     44      6     13     27     33     14     16      2     49     29     13      0      7     51     41     14     15     57     30     49     24     53     22     11      9     58     59     31      2     48     35     46
     26    152    129     12      1    130    154     62      2     37    141     47     87    158    100    113    138    117    132     38     76     54      2    102     63     90     46     63     32    123     51     43     33     40    -10    -17    -10     71    -13     66     54    -25     58     96    -13     26     63     51     32     48     29     51     82     32     26    -11      0     78     52    -12     52      7    -10     -9    -18     89     78    -15     42    -18     29     20     73    -18      7     96     38    -15     14     48     49     21    -13     79     28     23     37    102    -22     37
      7     13     10     14	    207     57     13     28      8      0      0      0      0     32      0      0      0      0    -11    -31      0      0     93      5      0    140      0     32      0    141      0      0      0      0      0      0      0      0      0      0      0      0      0      0    110      0      0      0     42      0      0      0      0      6      0      0      0      0      0      0      0      0      0      0      0      0      0      0      0
      9     10     12     15	    401    196     30     33      3      0      0    -26      0      0      0      0      0      0      0      0      0      0    114    -10    258    116      0      0      0      0     84      0      0      0      0      0    -57      0      0      0      0      0      0      0     59      0    310      0      0      0      0    100      0    207      0     23    -34      0      0      0      0      0      0      0      0      0      0      0      0
      6     10     14     15	    302    136     24     25      4      0    -26      0     -4      0     30      0      0      0      0      0     31      0      0      0      0      0     51      0      0      0    214     51      0      0      0      0      0      0      0     54    225      0     22      0     22      0    116      0      0      0      0      0      0     75    221      0      0      0      0    -48      0      0      0      0      0      0      0      0    -55
     12     15     14     14	    392    259     25     27      5      0      0     -4      0      8      0      0      0    -22      0      0      0     98      0     20    214      2      0      0      0      0      7      0      0      0      0    -30     83      0      0      0      0      0     74     86    123      0      0      0      0      0      0      0      0      0      0      0      0    -54      0    -26      0      0      0      0      0      0    117      0      0
     10     14     12     14	    128     79     26     27      6     32      0      0      8      0      0     92      0      0      0      0      0      0     90      0      0      0      0      0      0      0    -20      0     99      0      0      0      0      0      0      0      0      0      0      0      0    -14      0      0      0      0     17      0      0      0      0      0      0      0      0      0      0      0      0      0     46      0     12    -21      0
      7     11     14     15	    198    100     26     31      8      0      0     30      0      0      0    141    146      0      0      0      0      0      0      0      0      0      0      0      0      0      0      0      0      0    151     95      0      0      0      0     98      0      0     18     56      0      0      0      0    138     55      0      0      0      0    -15    122      0      0      0      0    -10      0    -15      0      0      0      0    110
      7     14     13     13	    455     62     26     28      8      0      0      0      0     92    141      0    187      0      0      0      0      0    140      0     -2      0      0      0      0      0      0      0      0      0      0    -28      0     29      0      0      0      0      0      0     75      0      0      0      0      0      0      0      0      0      0      0    -12      0    -44      0     54      0      0      0      0      0      0      0      0
      7     13     13     12	    264    115     17     25     10      0      0      0      0      0    146    187      0      0     59      0     31      0      0      0      0      0      0    -21      0    203      0      0      0      0     -2      0      0     41    195     70    -24      0      0      0    124      0    152      0      0    100      0      0      0    128      0      0      0    -32      0      0    -22      0      0    148      0     39     -1      0      0
     12     15     12     15	    294    203     19     29      5      0      0      0    -22      0      0      0      0      0      0      0      0      0      0      0      0     74    -22      0     21      0    103      0      0    -35      0      0      0      0      0      0    100      0      0      0      0    177    -55     64      0     82      0      0      0      0      0     95     59    156      0      0      0      0      0      0    173      0      0      0      0
      6     15     13     14	    380    138     23     25      7    -11      0      0      0      0      0      0     59      0      0      0      0      0      0      0    266      0      0      0      0      0      0      0      0      0      0      0      0      0      0      0      0      0      0      0      0     61      0     47      0      0      0      0    173      0      0      0      0      0      0      0      0      0      0      0      0      0      0      0      0
      9     10     13     15	    241     93     24     30      7    -31      0      0      0      0      0      0      0      0      0      0      0     74      0      0      0      0      0      0      0      0      0      0      0      0      0      0      0      0      0      0      0      0      0      0      0      0      0      0      0      0      0      0      0     62      0      0      0      0    163      0      0      0      0      0      0      0      0      0      0
     12     12     13     12	    134     52     24     26      8      0      0     31      0      0      0      0     31      0      0      0      0      0     84     75      0      0      0      0    101      0     71      0      0      0      0      0      0      0      0      0      0      0      0      0      0     58      0    -11      0      0      0      0      0      0    -19      0     64      0      0     94      0      0     37      0      0     19      0      0      0
      7     11     14     10	    126     64     15     33      5      0      0      0     98      0      0      0      0      0      0     74      0      0      0      0      0      0      0      0      0     84     33     25      0     70     67      0     26      0     54      0     61      0      0      0      0      0      0      0      0      0     13      0      0     48      0      0      0      0      0     16      0      0      0      0      0      0      0     56      0
      8     15     14     11	    274     65      9     17      2     93    114      0      0     90      0    140      0      0      0      0     84      0      0      0    -36      0      0      0    184      0      0      0      0      0      0      0    186      0      0      0      0     56      0      0     -2      0      0      0      0      0      0      0    124      0      0      0     32      0      0      0      0      0     51      0      0      0      0     45      0
     11     10     10     10	    272    168     19     27      2      5    -10      0     20      0      0      0      0      0      0      0     75      0      0      0      0      0      0    104      0      0      0      0      0    -35      0    -28      0      0      0      0      0      0      0      0      0    215     16      0    133      0      0      0      0    161      0     95     77      0      0      0      0      0      0      0    215      0    -18     22      0
      6     15     15     10	    454    212     30     32      6      0    258      0    214      0      0     -2      0      0    266      0      0      0    -36      0      0    155      0     24    161     71    -51      0      0     49      0    109      0      0      0      0      0      0    188      0    -20      0      0      0    -29      0      0      0      0      0      0    304     23      0      0      0      0      0      0    346      0      0      0     27      0
     10     10     13     13	    305    156     16     31      1    140    116      0      2      0      0      0      0     74      0      0      0      0      0      0    155      0      0      0      0      0      0      0    -14      0      0      0    143     99      0      0      0      0      0      0    149      0      0      0     -4      0      0      0      0     20      0    206      0      0    168    164      0      0     47      0      0      0    130      0      0
     10     13     14     13	    175     97     11     25      1      0      0     51      0      0      0      0      0    -22      0      0      0      0      0      0      0      0      0      0      0     10      0      0      0      0      7     20      0      0      0      0      0      0      0      0      0      0      0      0    135      0      0      0      0      0      0      1      0      0      0      0     57      0     28    101      0     64      0      0      0
      9     13     12     14	    219    126     31     32      5     32      0      0      0      0      0      0    -21      0      0      0      0      0      0    104     24      0      0      0      0      0      0      0      0      0      0     47     76      0      0     51      0    100      0      0     33     48      0      0      0      0      0      0      0      0      0      0     94      0      0      0      0      0      0      0      0      0      0      0      0
      8     13     13     14	    447    299      9     14      1      0      0      0      0      0      0      0      0     21      0      0    101      0    184      0    161      0      0      0      0      0      0      0    187      0      0     56      0     48      0    -20      0     73      0      0      0      0      0      0      0     67    106      0      0      0    -25      0     23    -22      0      0      0      0      0      0      0      0      0      0      0
      6     13     13     13	    359     62     12     21      3    141      0      0      0      0      0      0    203      0      0      0      0     84      0      0     71      0     10      0      0      0      0    -23      0      0      0      0     97      0      0      0    -20      0      0      0      0      0     77      0    266     87      0      0     47      0      0      0      0      0      0    206     63      0     41      0     55      0      0     29      0
      8     11     15     13	    399     69     17     20     10      0     84    214      7    -20      0      0      0    103      0      0     71     33      0      0    -51      0      0      0      0      0      0      0      0      0      0      0    157      0    191    -13      0      0      0      0     19      0      0      0      0      0      0    266    140      0      0      0    147      0      0      0    -22      0      0      0      0      0      0      0      0
     12     13     10     12	    164     92     33     33      5      0      0     51      0      0      0      0      0      0      0      0      0     25      0      0      0      0      0      0      0    -23      0      0    103      0     97      0    101      0      0      0      0      0    103      0      0     90      0     43      0      0      0      0      0      0      5      0     34      0      0      0      0    126      0      0      0      0     76      0      0
      8     12     10     12	    290     93     15     18      3      0      0      0      0     99      0      0      0      0      0      0      0      0      0      0      0    -14      0      0    187      0      0    103      0      0    168      0    185      0    -56      0      0      0      0      0      0      0      0      0      2      0      0      0      0     75      0     25      0      0     36      0     58      0      0      1      0      0      0      0      0
      9     15     11     11	    315    200     26     32      8      0      0      0      0      0      0      0      0    -35      0      0      0     70      0    -35     49      0      0      0      0      0      0      0      0      0      0      0      0      0    176    104      0      0    189    139    101      0      0      0      0      0      0      0    -54      0      0      0      0      0     65    199      0      0      0      0    107      9      0     24      0
     10     12     13     12	    380    188     33     33      6      0      0      0      0      0    151      0     -2      0      0      0      0     67      0      0      0      0      7      0      0      0      0     97    168      0      0      0    215      0    -11     88      0      0      0      0     17      0      0     54      0    -45      0      0      0      0      0    -49      0      0      0      0      0      0      0    215      0      0    174      0      0
      9     11     15     11	    167     99     33     33     10      0      0      0    -30      0     95    -28      0      0      0      0      0      0      0    -28    109      0     20     47     56      0      0      0      0      0      0      0      0      0      0      0      0      0    117      0     62      0     55      0      0      0      0      0      0      0      0      0      0      0      0      0      0      0     58      0      0      0      0      0      0
      9     15     12     12	    451    116     17     21     10      0    -57      0     83      0      0      0      0      0      0      0      0     26    186      0      0    143      0     76      0     97    157    101    185      0    215      0      0      0    103      0      0      0      0      0      0    -11    149     33      0      0      0      0      0    157      0    105      0      0      0      0      0      0     -6      0    173      0      0      0      0
      9     13     10     12	    125     80     21     21     10      0      0      0      0      0      0     29     41      0      0      0      0      0      0      0      0     99      0      0     48      0      0      0      0      0      0      0      0      0      0      0      0      0      0      0      0      0     95      0      0     72      0      0      0      0      0      0      0      0     93      0      0      0     79      0     38      9      0      0      0
     11     13     11     11	    366    131     21     23      4      0      0      0      0      0      0      0    195      0      0      0      0     54      0      0      0      0      0      0      0      0    191      0    -56    176    -11      0    103      0      0      0      0    110      0      0      0      0      0      0      0      0      0      0      0      0      0    221      0      0      0      0      0      0      0    182      0      0      0      0      0
      9     14     11     13	    163     73     22     27      3      0      0     54      0      0      0      0     70      0      0      0      0      0      0      0      0      0      0     51    -20      0    -13      0      0    104     88      0      0      0      0      0      0     96      0      0      0      0      0      0      0    120      0      0      0      0      0      0      0    -24      0     50      0      0      0      0      0      0      0      0      0
     12     13     15     10	    392    183     32     33      1      0      0    225      0      0     98      0    -24    100      0      0      0     61      0      0      0      0      0      0      0    -20      0      0      0      0      0      0      0      0      0      0      0     14    155      0    136      0      0      0      0      0      0      0      0      0      0     89      0    169      0     50      0      0      8      0    119      0      0      0      0
      9     12     12     10	    168     67     14     16      2      0      0      0      0      0      0      0      0      0      0      0      0      0     56      0      0      0      0    100     73      0      0      0      0      0      0      0      0      0    110     96     14      0      0      0      0      0     61      0      0     26      0      0      0      0     20      0     34      0     45      0     13      0      0     -9      0    121     71      0     33
     12     10     11     15	    246    111     20     25      4      0      0     22     74      0      0      0      0      0      0      0      0      0      0      0    188      0      0      0      0      0      0    103      0    189      0    117      0      0      0      0    155      0      0      0      0      0      0     32      0      0      0      0      0      0      0      0      0      0      0      0      0      0      0      0      0      0      0      0      0
     10     13     12     15	    209    144     31     33      7      0      0      0     86      0     18      0      0      0      0      0      0      0      0      0      0      0      0      0      0      0      0      0      0    139      0      0      0      0      0      0      0      0      0      0      0     -5      0      0      0      0      0      0      0      0      0      0      0     72      9    130      0      0      0      0      0      0     70      0      0
      6     10     15     10	    204     94     28     30     10    110     59     22    123      0     56     75    124      0      0      0      0      0     -2      0    -20    149      0     33      0      0     19      0      0    101     17     62      0      0      0      0    136      0      0      0      0      0      0      0      0      0      0     36     37      0      0      0      0      0    -22      0     74     80      0      0      0      0      0      0    112
      8     14     11     11	    291    168     15     25      5      0      0      0      0    -14      0      0      0    177     61      0     58      0      0    215      0      0      0     48      0      0      0     90      0      0      0      0    -11      0      0      0      0      0      0     -5      0      0      0      0     28      0      0      0     83     21      0      0      0    116      0      0      0      0      0      0    144      0      0      0    218
     12     14     13     11	    402    239     27     31      3      0    310    116      0      0      0      0    152    -55      0      0      0      0      0     16      0      0      0      0      0     77      0      0      0      0      0     55    149     95      0      0      0     61      0      0      0      0      0      0     42      0      0    -33      0      0      0      0      0      0      0      0      0      0     71      0      0      0    -33      0      0
      8     15     14     13	    111     59     10     26      9      0      0      0      0      0      0      0      0     64     47      0    -11      0      0      0      0      0      0      0      0      0      0     43      0      0     54      0     33      0      0      0      0      0     32      0      0      0      0      0      0      0    -19      0      0     43      0     83      0      0      0      0      0      0      0      0      0      0      0      0      0
      8     11     10     11	    448    227     24     31      8     42      0      0      0      0      0      0      0      0      0      0      0      0      0    133    -29     -4    135      0      0    266      0      0      2      0      0      0      0      0      0      0      0      0      0      0      0     28     42      0      0      0      0      0      0      0     14     30      0      0      0      0      0      0      0      0      0     81      0     64      0
      6     11     12     13	    229    111     33     33      3      0      0      0      0      0    138      0    100     82      0      0      0      0      0      0      0      0      0      0     67     87      0      0      0      0    -45      0      0     72      0    120      0     26      0      0      0      0      0      0      0      0      0      0      0      0      0      0      0      0     -6      0      0      0      0      0      0      0      0      0      0
     10     15     11     15	    428    251     21     24      7      0      0      0      0     17     55      0      0      0      0      0      0     13      0      0      0      0      0      0    106      0      0      0      0      0      0      0      0      0      0      0      0      0      0      0      0      0      0    -19      0      0      0      0      0      0      0      0      0      0      0      0      0      0      0      0      0      0      0      0    -64
     10     12     11     14	    354    207     23     32      2      0    100      0      0      0      0      0      0      0      0      0      0      0      0      0      0      0      0      0      0      0    266      0      0      0      0      0      0      0      0      0      0      0      0      0     36      0    -33      0      0      0      0      0    114      0    222      0      0    -25      0      0      0      0      0      0      0      0      0      0      0
     10     14     12     11	    489     58     20     32      5      0      0      0      0      0      0      0      0      0    173      0      0      0    124      0      0      0      0      0      0     47    140      0      0    -54      0      0      0      0      0      0      0      0      0      0     37     83      0      0      0      0      0    114      0      0      0      0      0      0      0      0     65      0      0    313    341     60      0     69      0
      9     13     14     14	    281     69     18     22      2      6    207     75      0      0      0      0    128      0      0     62      0     48      0    161      0     20      0      0      0      0      0      0     75      0      0      0    157      0      0      0      0      0      0      0      0     21      0     43      0      0      0      0      0      0      0      0      0     80      0      0     37    -39      0      0      0      0      0     71      0
      8     13     11     11	    380    237      9     15      4      0      0    221      0      0      0      0      0      0      0      0    -19      0      0      0      0      0      0      0    -25      0      0      5      0      0      0      0      0      0      0      0      0     20      0      0      0      0      0      0     14      0      0    222      0      0      0      0    136      0      0      0      0      0      0      0      0      0      0     86      0
     10     14     15     11	    472    175     33     33      5      0     23      0      0      0    -15      0      0     95      0      0      0      0      0     95    304    206      1      0      0      0      0      0     25      0    -49      0    105      0    221      0     89      0      0      0      0      0      0     83     30      0      0      0      0      0      0      0      0    254      0      0      0      0      0      0      0      0    -27      0      0
     10     12     13     10	    193     72     22     22      5      0    -34      0      0      0    122    -12      0     59      0      0     64      0     32     77     23      0      0     94     23      0    147     34      0      0      0      0      0      0      0      0      0     34      0      0      0      0      0      0      0      0      0      0      0      0    136      0      0      0      0      0      0    -11      0      1    115      0      0     45      0
     11     12     15     12	    326    174     24     24      9      0      0      0    -54      0      0      0    -32    156      0      0      0      0      0      0      0      0      0      0    -22      0      0      0      0      0      0      0      0      0      0    -24    169      0      0     72      0    116      0      0      0      0      0    -25      0     80      0    254      0      0      0    218      0      0      0      0      0      0      0      0      0
     11     10     10     11	    483    303     19     28     10      0      0      0      0      0      0    -44      0      0      0    163      0      0      0      0      0    168      0      0      0      0      0      0     36     65      0      0      0     93      0      0      0     45      0      9    -22      0      0      0      0     -6      0      0      0      0      0      0      0      0      0      0      0      0     74     72      0      0      0      0    -31
      9     14     15     15	    392    176     22     33      6      0      0    -48    -26      0      0      0      0      0      0      0     94     16      0      0      0    164      0      0      0    206      0      0      0    199      0      0      0      0      0     50     50      0      0    130      0      0      0      0      0      0      0      0      0      0      0      0      0    218      0      0      0      0     30      0      0    163      0      0    -46
      8     12     11     11	    121     51     26     29      6      0      0      0      0      0      0     54    -22      0      0      0      0      0      0      0      0      0     57      0      0     63    -22      0     58      0      0      0      0      0      0      0      0     13      0      0     74      0      0      0      0      0      0      0     65     37      0      0      0      0      0      0      0      0      0      0      0      0      0      0      0
      8     12     15     13	    303     93     15     33      2      0      0      0      0      0    -10      0      0      0      0      0      0      0      0      0      0      0      0      0      0      0      0    126      0      0      0      0      0      0      0      0      0      0      0      0     80      0      0      0      0      0      0      0      0    -39      0      0    -11      0      0      0      0      0      0      0    242      0      0    -14      0
     11     11     15     12	    105     56     29     32      7      0      0      0      0      0      0      0      0      0      0      0     37      0     51      0      0     47     28      0      0     41      0      0      0      0      0     58     -6     79      0      0      8      0      0      0      0      0     71      0      0      0      0      0      0      0      0      0      0      0     74     30      0      0      0      0     49     59      0     67      0
     11     11     11     12	    464    305     26     32      6      0      0      0      0      0    -15      0    148      0      0      0      0      0      0      0    346      0    101      0      0      0      0      0      1      0    215      0      0      0    182      0      0     -9      0      0      0      0      0      0      0      0      0      0    313      0      0      0      1      0     72      0      0      0      0      0      0      0      0      0      8
     11     10     14     15	    488    271     20     23      4      0      0      0      0     46      0      0      0    173      0      0      0      0      0    215      0      0      0      0      0     55      0      0      0    107      0      0    173     38      0      0    119      0      0      0      0    144      0      0      0      0      0      0    341      0      0      0    115      0      0      0      0    242     49      0      0      0      0     83      0
      9     11     11     13	    320    217     28     32      9      0      0      0      0      0      0      0     39      0      0      0     19      0      0      0      0      0     64      0      0      0      0      0      0      9      0      0      0      9      0      0      0    121      0      0      0      0      0      0     81      0      0      0     60      0      0      0      0      0      0    163      0      0     59      0      0      0      0      0      0
     11     14     13     12	    226    101     24     29      7      0      0      0    117     12      0      0     -1      0      0      0      0      0      0    -18      0    130      0      0      0      0      0     76      0      0    174      0      0      0      0      0      0     71      0     70      0      0    -33      0      0      0      0      0      0      0      0    -27      0      0      0      0      0      0      0      0      0      0      0      0      0
      8     12     11     13	    111     72     24     32      6      0      0      0      0    -21      0      0      0      0      0      0      0     56     45     22     27      0      0      0      0     29      0      0      0     24      0      0      0      0      0      0      0      0      0      0      0      0      0      0     64      0      0      0     69     71     86      0     45      0      0      0      0    -14     67      0     83      0      0      0      0
     12     13     15     14	    378     98     15     33      3      0      0    -55      0      0    110      0      0      0      0      0      0      0      0      0      0      0      0      0      0      0      0      0      0      0      0      0      0      0      0      0      0     33      0      0    112    218      0      0      0      0    -64      0      0      0      0      0      0      0    -31    -46      0      0      0      8      0      0      0      0      0